c File: flat50_3_0.col
c
c SOURCE: Joseph Culberson (joe@cs.ualberta.ca)
c DESCRIPTION: Quasi-random coloring problem
c              generated with flatness = 0
c                             probability = 0.139
c                             known coloring = 3
c                             random seed = 1015
c              Creation Date:  Tue Jun  9 11:59:08 1998
c Maximum degree = 8 Minimum degree = 1
c p edge 50 115
c cnf created by edge2cnf
p cnf 150 545
-1 -2 0
-1 -3 0
-2 -3 0
1 2 3 0
-4 -5 0
-4 -6 0
-5 -6 0
4 5 6 0
-7 -8 0
-7 -9 0
-8 -9 0
7 8 9 0
-10 -11 0
-10 -12 0
-11 -12 0
10 11 12 0
-13 -14 0
-13 -15 0
-14 -15 0
13 14 15 0
-16 -17 0
-16 -18 0
-17 -18 0
16 17 18 0
-19 -20 0
-19 -21 0
-20 -21 0
19 20 21 0
-22 -23 0
-22 -24 0
-23 -24 0
22 23 24 0
-25 -26 0
-25 -27 0
-26 -27 0
25 26 27 0
-28 -29 0
-28 -30 0
-29 -30 0
28 29 30 0
-31 -32 0
-31 -33 0
-32 -33 0
31 32 33 0
-34 -35 0
-34 -36 0
-35 -36 0
34 35 36 0
-37 -38 0
-37 -39 0
-38 -39 0
37 38 39 0
-40 -41 0
-40 -42 0
-41 -42 0
40 41 42 0
-43 -44 0
-43 -45 0
-44 -45 0
43 44 45 0
-46 -47 0
-46 -48 0
-47 -48 0
46 47 48 0
-49 -50 0
-49 -51 0
-50 -51 0
49 50 51 0
-52 -53 0
-52 -54 0
-53 -54 0
52 53 54 0
-55 -56 0
-55 -57 0
-56 -57 0
55 56 57 0
-58 -59 0
-58 -60 0
-59 -60 0
58 59 60 0
-61 -62 0
-61 -63 0
-62 -63 0
61 62 63 0
-64 -65 0
-64 -66 0
-65 -66 0
64 65 66 0
-67 -68 0
-67 -69 0
-68 -69 0
67 68 69 0
-70 -71 0
-70 -72 0
-71 -72 0
70 71 72 0
-73 -74 0
-73 -75 0
-74 -75 0
73 74 75 0
-76 -77 0
-76 -78 0
-77 -78 0
76 77 78 0
-79 -80 0
-79 -81 0
-80 -81 0
79 80 81 0
-82 -83 0
-82 -84 0
-83 -84 0
82 83 84 0
-85 -86 0
-85 -87 0
-86 -87 0
85 86 87 0
-88 -89 0
-88 -90 0
-89 -90 0
88 89 90 0
-91 -92 0
-91 -93 0
-92 -93 0
91 92 93 0
-94 -95 0
-94 -96 0
-95 -96 0
94 95 96 0
-97 -98 0
-97 -99 0
-98 -99 0
97 98 99 0
-100 -101 0
-100 -102 0
-101 -102 0
100 101 102 0
-103 -104 0
-103 -105 0
-104 -105 0
103 104 105 0
-106 -107 0
-106 -108 0
-107 -108 0
106 107 108 0
-109 -110 0
-109 -111 0
-110 -111 0
109 110 111 0
-112 -113 0
-112 -114 0
-113 -114 0
112 113 114 0
-115 -116 0
-115 -117 0
-116 -117 0
115 116 117 0
-118 -119 0
-118 -120 0
-119 -120 0
118 119 120 0
-121 -122 0
-121 -123 0
-122 -123 0
121 122 123 0
-124 -125 0
-124 -126 0
-125 -126 0
124 125 126 0
-127 -128 0
-127 -129 0
-128 -129 0
127 128 129 0
-130 -131 0
-130 -132 0
-131 -132 0
130 131 132 0
-133 -134 0
-133 -135 0
-134 -135 0
133 134 135 0
-136 -137 0
-136 -138 0
-137 -138 0
136 137 138 0
-139 -140 0
-139 -141 0
-140 -141 0
139 140 141 0
-142 -143 0
-142 -144 0
-143 -144 0
142 143 144 0
-145 -146 0
-145 -147 0
-146 -147 0
145 146 147 0
-148 -149 0
-148 -150 0
-149 -150 0
148 149 150 0
-55 -1 0
-56 -2 0
-57 -3 0
-58 -1 0
-59 -2 0
-60 -3 0
-67 -1 0
-68 -2 0
-69 -3 0
-121 -1 0
-122 -2 0
-123 -3 0
-91 -4 0
-92 -5 0
-93 -6 0
-94 -4 0
-95 -5 0
-96 -6 0
-100 -4 0
-101 -5 0
-102 -6 0
-121 -4 0
-122 -5 0
-123 -6 0
-133 -4 0
-134 -5 0
-135 -6 0
-55 -7 0
-56 -8 0
-57 -9 0
-91 -7 0
-92 -8 0
-93 -9 0
-118 -7 0
-119 -8 0
-120 -9 0
-67 -10 0
-68 -11 0
-69 -12 0
-70 -10 0
-71 -11 0
-72 -12 0
-76 -10 0
-77 -11 0
-78 -12 0
-109 -10 0
-110 -11 0
-111 -12 0
-112 -10 0
-113 -11 0
-114 -12 0
-121 -10 0
-122 -11 0
-123 -12 0
-136 -10 0
-137 -11 0
-138 -12 0
-73 -13 0
-74 -14 0
-75 -15 0
-79 -13 0
-80 -14 0
-81 -15 0
-106 -13 0
-107 -14 0
-108 -15 0
-58 -16 0
-59 -17 0
-60 -18 0
-73 -16 0
-74 -17 0
-75 -18 0
-91 -16 0
-92 -17 0
-93 -18 0
-97 -16 0
-98 -17 0
-99 -18 0
-124 -16 0
-125 -17 0
-126 -18 0
-88 -19 0
-89 -20 0
-90 -21 0
-100 -19 0
-101 -20 0
-102 -21 0
-103 -19 0
-104 -20 0
-105 -21 0
-118 -19 0
-119 -20 0
-120 -21 0
-124 -19 0
-125 -20 0
-126 -21 0
-70 -22 0
-71 -23 0
-72 -24 0
-106 -22 0
-107 -23 0
-108 -24 0
-121 -22 0
-122 -23 0
-123 -24 0
-58 -25 0
-59 -26 0
-60 -27 0
-76 -25 0
-77 -26 0
-78 -27 0
-88 -25 0
-89 -26 0
-90 -27 0
-112 -25 0
-113 -26 0
-114 -27 0
-118 -25 0
-119 -26 0
-120 -27 0
-124 -25 0
-125 -26 0
-126 -27 0
-136 -25 0
-137 -26 0
-138 -27 0
-58 -28 0
-59 -29 0
-60 -30 0
-112 -28 0
-113 -29 0
-114 -30 0
-115 -28 0
-116 -29 0
-117 -30 0
-127 -28 0
-128 -29 0
-129 -30 0
-136 -28 0
-137 -29 0
-138 -30 0
-55 -31 0
-56 -32 0
-57 -33 0
-61 -31 0
-62 -32 0
-63 -33 0
-64 -31 0
-65 -32 0
-66 -33 0
-94 -31 0
-95 -32 0
-96 -33 0
-103 -31 0
-104 -32 0
-105 -33 0
-136 -31 0
-137 -32 0
-138 -33 0
-103 -34 0
-104 -35 0
-105 -36 0
-64 -37 0
-65 -38 0
-66 -39 0
-85 -37 0
-86 -38 0
-87 -39 0
-91 -37 0
-92 -38 0
-93 -39 0
-97 -37 0
-98 -38 0
-99 -39 0
-115 -37 0
-116 -38 0
-117 -39 0
-79 -40 0
-80 -41 0
-81 -42 0
-124 -40 0
-125 -41 0
-126 -42 0
-139 -40 0
-140 -41 0
-141 -42 0
-61 -43 0
-62 -44 0
-63 -45 0
-73 -43 0
-74 -44 0
-75 -45 0
-106 -43 0
-107 -44 0
-108 -45 0
-112 -43 0
-113 -44 0
-114 -45 0
-115 -43 0
-116 -44 0
-117 -45 0
-127 -43 0
-128 -44 0
-129 -45 0
-55 -46 0
-56 -47 0
-57 -48 0
-67 -46 0
-68 -47 0
-69 -48 0
-82 -46 0
-83 -47 0
-84 -48 0
-94 -46 0
-95 -47 0
-96 -48 0
-130 -46 0
-131 -47 0
-132 -48 0
-148 -46 0
-149 -47 0
-150 -48 0
-100 -49 0
-101 -50 0
-102 -51 0
-118 -49 0
-119 -50 0
-120 -51 0
-148 -49 0
-149 -50 0
-150 -51 0
-103 -52 0
-104 -53 0
-105 -54 0
-118 -52 0
-119 -53 0
-120 -54 0
-106 -55 0
-107 -56 0
-108 -57 0
-115 -55 0
-116 -56 0
-117 -57 0
-127 -55 0
-128 -56 0
-129 -57 0
-130 -55 0
-131 -56 0
-132 -57 0
-133 -58 0
-134 -59 0
-135 -60 0
-136 -58 0
-137 -59 0
-138 -60 0
-139 -58 0
-140 -59 0
-141 -60 0
-103 -61 0
-104 -62 0
-105 -63 0
-127 -61 0
-128 -62 0
-129 -63 0
-139 -61 0
-140 -62 0
-141 -63 0
-148 -61 0
-149 -62 0
-150 -63 0
-118 -64 0
-119 -65 0
-120 -66 0
-121 -64 0
-122 -65 0
-123 -66 0
-109 -70 0
-110 -71 0
-111 -72 0
-130 -70 0
-131 -71 0
-132 -72 0
-133 -73 0
-134 -74 0
-135 -75 0
-145 -73 0
-146 -74 0
-147 -75 0
-103 -76 0
-104 -77 0
-105 -78 0
-118 -76 0
-119 -77 0
-120 -78 0
-130 -79 0
-131 -80 0
-132 -81 0
-127 -82 0
-128 -83 0
-129 -84 0
-139 -82 0
-140 -83 0
-141 -84 0
-148 -82 0
-149 -83 0
-150 -84 0
-109 -88 0
-110 -89 0
-111 -90 0
-109 -91 0
-110 -92 0
-111 -93 0
-133 -91 0
-134 -92 0
-135 -93 0
-136 -91 0
-137 -92 0
-138 -93 0
-148 -91 0
-149 -92 0
-150 -93 0
-106 -94 0
-107 -95 0
-108 -96 0
-109 -97 0
-110 -98 0
-111 -99 0
-112 -97 0
-113 -98 0
-114 -99 0
-133 -97 0
-134 -98 0
-135 -99 0
-118 -100 0
-119 -101 0
-120 -102 0
-127 -100 0
-128 -101 0
-129 -102 0
-130 -100 0
-131 -101 0
-132 -102 0
-142 -100 0
-143 -101 0
-144 -102 0
